\Problem name: 

Minimize
OBJROW: - x_0 - x_1 - x_2 - x_3 -3 x_4 - x_5 -3 x_6 - x_7 - x_8 -5 x_9
 + z_0_0 + 41 z_0_1 -3 z_0_2 + 41 z_0_3 + 43 z_0_4 -3 z_0_5 + 43 z_0_6 -3 z_0_7 -3 z_0_8 + 45 z_0_9
 + z_1_0 + z_1_1 + 41 z_1_2 -3 z_1_3 - z_1_4 + 41 z_1_5 - z_1_6 + 41 z_1_7 + 41 z_1_8 + z_1_9
 + z_2_0 + z_2_1 + z_2_2 + 41 z_2_3 + 43 z_2_4 -3 z_2_5 + 43 z_2_6 -3 z_2_7 -3 z_2_8 + 45 z_2_9
 + z_3_0 + z_3_1 + z_3_2 + z_3_3 - z_3_4 + 41 z_3_5 - z_3_6 + 41 z_3_7 + 41 z_3_8 + z_3_9
 + z_4_0 + z_4_1 + z_4_2 + z_4_3 + 3 z_4_4 + 41 z_4_5 - z_4_6 + 41 z_4_7 + 41 z_4_8 + 45 z_4_9
 + z_5_0 + z_5_1 + z_5_2 + z_5_3 + 3 z_5_4 + z_5_5 + 43 z_5_6 -3 z_5_7 -3 z_5_8 + 45 z_5_9
 + z_6_0 + z_6_1 + z_6_2 + z_6_3 + 3 z_6_4 + z_6_5 + 3 z_6_6 + 41 z_6_7 + 41 z_6_8 + 45 z_6_9
 + z_7_0 + z_7_1 + z_7_2 + z_7_3 + 3 z_7_4 + z_7_5 + 3 z_7_6 + z_7_7 -3 z_7_8 + 45 z_7_9
 + z_8_0 + z_8_1 + z_8_2 + z_8_3 + 3 z_8_4 + z_8_5 + 3 z_8_6 + z_8_7 + z_8_8 + 45 z_8_9
 + z_9_0 + z_9_1 + z_9_2 + z_9_3 + 3 z_9_4 + z_9_5 + 3 z_9_6 + z_9_7 + z_9_8 + 5 z_9_9
Subject To
constr(0):  x_0 - z_0_0 <= 1
constr(1):  x_0 - z_0_0 >= -0
constr(2):  x_0 - z_0_0 >= -0
constr(3):  x_0 + x_1 - z_0_1 <= 1
constr(4):  x_0 - z_0_1 >= -0
constr(5):  x_1 - z_0_1 >= -0
constr(6):  x_0 + x_2 - z_0_2 <= 1
constr(7):  x_0 - z_0_2 >= -0
constr(8):  x_2 - z_0_2 >= -0
constr(9):  x_0 + x_3 - z_0_3 <= 1
constr(10):  x_0 - z_0_3 >= -0
constr(11):  x_3 - z_0_3 >= -0
constr(12):  x_0 + x_4 - z_0_4 <= 1
constr(13):  x_0 - z_0_4 >= -0
constr(14):  x_4 - z_0_4 >= -0
constr(15):  x_0 + x_5 - z_0_5 <= 1
constr(16):  x_0 - z_0_5 >= -0
constr(17):  x_5 - z_0_5 >= -0
constr(18):  x_0 + x_6 - z_0_6 <= 1
constr(19):  x_0 - z_0_6 >= -0
constr(20):  x_6 - z_0_6 >= -0
constr(21):  x_0 + x_7 - z_0_7 <= 1
constr(22):  x_0 - z_0_7 >= -0
constr(23):  x_7 - z_0_7 >= -0
constr(24):  x_0 + x_8 - z_0_8 <= 1
constr(25):  x_0 - z_0_8 >= -0
constr(26):  x_8 - z_0_8 >= -0
constr(27):  x_0 + x_9 - z_0_9 <= 1
constr(28):  x_0 - z_0_9 >= -0
constr(29):  x_9 - z_0_9 >= -0
constr(30):  x_0 + x_1 - z_1_0 <= 1
constr(31):  x_1 - z_1_0 >= -0
constr(32):  x_0 - z_1_0 >= -0
constr(33):  x_1 - z_1_1 <= 1
constr(34):  x_1 - z_1_1 >= -0
constr(35):  x_1 - z_1_1 >= -0
constr(36):  x_1 + x_2 - z_1_2 <= 1
constr(37):  x_1 - z_1_2 >= -0
constr(38):  x_2 - z_1_2 >= -0
constr(39):  x_1 + x_3 - z_1_3 <= 1
constr(40):  x_1 - z_1_3 >= -0
constr(41):  x_3 - z_1_3 >= -0
constr(42):  x_1 + x_4 - z_1_4 <= 1
constr(43):  x_1 - z_1_4 >= -0
constr(44):  x_4 - z_1_4 >= -0
constr(45):  x_1 + x_5 - z_1_5 <= 1
constr(46):  x_1 - z_1_5 >= -0
constr(47):  x_5 - z_1_5 >= -0
constr(48):  x_1 + x_6 - z_1_6 <= 1
constr(49):  x_1 - z_1_6 >= -0
constr(50):  x_6 - z_1_6 >= -0
constr(51):  x_1 + x_7 - z_1_7 <= 1
constr(52):  x_1 - z_1_7 >= -0
constr(53):  x_7 - z_1_7 >= -0
constr(54):  x_1 + x_8 - z_1_8 <= 1
constr(55):  x_1 - z_1_8 >= -0
constr(56):  x_8 - z_1_8 >= -0
constr(57):  x_1 + x_9 - z_1_9 <= 1
constr(58):  x_1 - z_1_9 >= -0
constr(59):  x_9 - z_1_9 >= -0
constr(60):  x_0 + x_2 - z_2_0 <= 1
constr(61):  x_2 - z_2_0 >= -0
constr(62):  x_0 - z_2_0 >= -0
constr(63):  x_1 + x_2 - z_2_1 <= 1
constr(64):  x_2 - z_2_1 >= -0
constr(65):  x_1 - z_2_1 >= -0
constr(66):  x_2 - z_2_2 <= 1
constr(67):  x_2 - z_2_2 >= -0
constr(68):  x_2 - z_2_2 >= -0
constr(69):  x_2 + x_3 - z_2_3 <= 1
constr(70):  x_2 - z_2_3 >= -0
constr(71):  x_3 - z_2_3 >= -0
constr(72):  x_2 + x_4 - z_2_4 <= 1
constr(73):  x_2 - z_2_4 >= -0
constr(74):  x_4 - z_2_4 >= -0
constr(75):  x_2 + x_5 - z_2_5 <= 1
constr(76):  x_2 - z_2_5 >= -0
constr(77):  x_5 - z_2_5 >= -0
constr(78):  x_2 + x_6 - z_2_6 <= 1
constr(79):  x_2 - z_2_6 >= -0
constr(80):  x_6 - z_2_6 >= -0
constr(81):  x_2 + x_7 - z_2_7 <= 1
constr(82):  x_2 - z_2_7 >= -0
constr(83):  x_7 - z_2_7 >= -0
constr(84):  x_2 + x_8 - z_2_8 <= 1
constr(85):  x_2 - z_2_8 >= -0
constr(86):  x_8 - z_2_8 >= -0
constr(87):  x_2 + x_9 - z_2_9 <= 1
constr(88):  x_2 - z_2_9 >= -0
constr(89):  x_9 - z_2_9 >= -0
constr(90):  x_0 + x_3 - z_3_0 <= 1
constr(91):  x_3 - z_3_0 >= -0
constr(92):  x_0 - z_3_0 >= -0
constr(93):  x_1 + x_3 - z_3_1 <= 1
constr(94):  x_3 - z_3_1 >= -0
constr(95):  x_1 - z_3_1 >= -0
constr(96):  x_2 + x_3 - z_3_2 <= 1
constr(97):  x_3 - z_3_2 >= -0
constr(98):  x_2 - z_3_2 >= -0
constr(99):  x_3 - z_3_3 <= 1
constr(100):  x_3 - z_3_3 >= -0
constr(101):  x_3 - z_3_3 >= -0
constr(102):  x_3 + x_4 - z_3_4 <= 1
constr(103):  x_3 - z_3_4 >= -0
constr(104):  x_4 - z_3_4 >= -0
constr(105):  x_3 + x_5 - z_3_5 <= 1
constr(106):  x_3 - z_3_5 >= -0
constr(107):  x_5 - z_3_5 >= -0
constr(108):  x_3 + x_6 - z_3_6 <= 1
constr(109):  x_3 - z_3_6 >= -0
constr(110):  x_6 - z_3_6 >= -0
constr(111):  x_3 + x_7 - z_3_7 <= 1
constr(112):  x_3 - z_3_7 >= -0
constr(113):  x_7 - z_3_7 >= -0
constr(114):  x_3 + x_8 - z_3_8 <= 1
constr(115):  x_3 - z_3_8 >= -0
constr(116):  x_8 - z_3_8 >= -0
constr(117):  x_3 + x_9 - z_3_9 <= 1
constr(118):  x_3 - z_3_9 >= -0
constr(119):  x_9 - z_3_9 >= -0
constr(120):  x_0 + x_4 - z_4_0 <= 1
constr(121):  x_4 - z_4_0 >= -0
constr(122):  x_0 - z_4_0 >= -0
constr(123):  x_1 + x_4 - z_4_1 <= 1
constr(124):  x_4 - z_4_1 >= -0
constr(125):  x_1 - z_4_1 >= -0
constr(126):  x_2 + x_4 - z_4_2 <= 1
constr(127):  x_4 - z_4_2 >= -0
constr(128):  x_2 - z_4_2 >= -0
constr(129):  x_3 + x_4 - z_4_3 <= 1
constr(130):  x_4 - z_4_3 >= -0
constr(131):  x_3 - z_4_3 >= -0
constr(132):  x_4 - z_4_4 <= 1
constr(133):  x_4 - z_4_4 >= -0
constr(134):  x_4 - z_4_4 >= -0
constr(135):  x_4 + x_5 - z_4_5 <= 1
constr(136):  x_4 - z_4_5 >= -0
constr(137):  x_5 - z_4_5 >= -0
constr(138):  x_4 + x_6 - z_4_6 <= 1
constr(139):  x_4 - z_4_6 >= -0
constr(140):  x_6 - z_4_6 >= -0
constr(141):  x_4 + x_7 - z_4_7 <= 1
constr(142):  x_4 - z_4_7 >= -0
constr(143):  x_7 - z_4_7 >= -0
constr(144):  x_4 + x_8 - z_4_8 <= 1
constr(145):  x_4 - z_4_8 >= -0
constr(146):  x_8 - z_4_8 >= -0
constr(147):  x_4 + x_9 - z_4_9 <= 1
constr(148):  x_4 - z_4_9 >= -0
constr(149):  x_9 - z_4_9 >= -0
constr(150):  x_0 + x_5 - z_5_0 <= 1
constr(151):  x_5 - z_5_0 >= -0
constr(152):  x_0 - z_5_0 >= -0
constr(153):  x_1 + x_5 - z_5_1 <= 1
constr(154):  x_5 - z_5_1 >= -0
constr(155):  x_1 - z_5_1 >= -0
constr(156):  x_2 + x_5 - z_5_2 <= 1
constr(157):  x_5 - z_5_2 >= -0
constr(158):  x_2 - z_5_2 >= -0
constr(159):  x_3 + x_5 - z_5_3 <= 1
constr(160):  x_5 - z_5_3 >= -0
constr(161):  x_3 - z_5_3 >= -0
constr(162):  x_4 + x_5 - z_5_4 <= 1
constr(163):  x_5 - z_5_4 >= -0
constr(164):  x_4 - z_5_4 >= -0
constr(165):  x_5 - z_5_5 <= 1
constr(166):  x_5 - z_5_5 >= -0
constr(167):  x_5 - z_5_5 >= -0
constr(168):  x_5 + x_6 - z_5_6 <= 1
constr(169):  x_5 - z_5_6 >= -0
constr(170):  x_6 - z_5_6 >= -0
constr(171):  x_5 + x_7 - z_5_7 <= 1
constr(172):  x_5 - z_5_7 >= -0
constr(173):  x_7 - z_5_7 >= -0
constr(174):  x_5 + x_8 - z_5_8 <= 1
constr(175):  x_5 - z_5_8 >= -0
constr(176):  x_8 - z_5_8 >= -0
constr(177):  x_5 + x_9 - z_5_9 <= 1
constr(178):  x_5 - z_5_9 >= -0
constr(179):  x_9 - z_5_9 >= -0
constr(180):  x_0 + x_6 - z_6_0 <= 1
constr(181):  x_6 - z_6_0 >= -0
constr(182):  x_0 - z_6_0 >= -0
constr(183):  x_1 + x_6 - z_6_1 <= 1
constr(184):  x_6 - z_6_1 >= -0
constr(185):  x_1 - z_6_1 >= -0
constr(186):  x_2 + x_6 - z_6_2 <= 1
constr(187):  x_6 - z_6_2 >= -0
constr(188):  x_2 - z_6_2 >= -0
constr(189):  x_3 + x_6 - z_6_3 <= 1
constr(190):  x_6 - z_6_3 >= -0
constr(191):  x_3 - z_6_3 >= -0
constr(192):  x_4 + x_6 - z_6_4 <= 1
constr(193):  x_6 - z_6_4 >= -0
constr(194):  x_4 - z_6_4 >= -0
constr(195):  x_5 + x_6 - z_6_5 <= 1
constr(196):  x_6 - z_6_5 >= -0
constr(197):  x_5 - z_6_5 >= -0
constr(198):  x_6 - z_6_6 <= 1
constr(199):  x_6 - z_6_6 >= -0
constr(200):  x_6 - z_6_6 >= -0
constr(201):  x_6 + x_7 - z_6_7 <= 1
constr(202):  x_6 - z_6_7 >= -0
constr(203):  x_7 - z_6_7 >= -0
constr(204):  x_6 + x_8 - z_6_8 <= 1
constr(205):  x_6 - z_6_8 >= -0
constr(206):  x_8 - z_6_8 >= -0
constr(207):  x_6 + x_9 - z_6_9 <= 1
constr(208):  x_6 - z_6_9 >= -0
constr(209):  x_9 - z_6_9 >= -0
constr(210):  x_0 + x_7 - z_7_0 <= 1
constr(211):  x_7 - z_7_0 >= -0
constr(212):  x_0 - z_7_0 >= -0
constr(213):  x_1 + x_7 - z_7_1 <= 1
constr(214):  x_7 - z_7_1 >= -0
constr(215):  x_1 - z_7_1 >= -0
constr(216):  x_2 + x_7 - z_7_2 <= 1
constr(217):  x_7 - z_7_2 >= -0
constr(218):  x_2 - z_7_2 >= -0
constr(219):  x_3 + x_7 - z_7_3 <= 1
constr(220):  x_7 - z_7_3 >= -0
constr(221):  x_3 - z_7_3 >= -0
constr(222):  x_4 + x_7 - z_7_4 <= 1
constr(223):  x_7 - z_7_4 >= -0
constr(224):  x_4 - z_7_4 >= -0
constr(225):  x_5 + x_7 - z_7_5 <= 1
constr(226):  x_7 - z_7_5 >= -0
constr(227):  x_5 - z_7_5 >= -0
constr(228):  x_6 + x_7 - z_7_6 <= 1
constr(229):  x_7 - z_7_6 >= -0
constr(230):  x_6 - z_7_6 >= -0
constr(231):  x_7 - z_7_7 <= 1
constr(232):  x_7 - z_7_7 >= -0
constr(233):  x_7 - z_7_7 >= -0
constr(234):  x_7 + x_8 - z_7_8 <= 1
constr(235):  x_7 - z_7_8 >= -0
constr(236):  x_8 - z_7_8 >= -0
constr(237):  x_7 + x_9 - z_7_9 <= 1
constr(238):  x_7 - z_7_9 >= -0
constr(239):  x_9 - z_7_9 >= -0
constr(240):  x_0 + x_8 - z_8_0 <= 1
constr(241):  x_8 - z_8_0 >= -0
constr(242):  x_0 - z_8_0 >= -0
constr(243):  x_1 + x_8 - z_8_1 <= 1
constr(244):  x_8 - z_8_1 >= -0
constr(245):  x_1 - z_8_1 >= -0
constr(246):  x_2 + x_8 - z_8_2 <= 1
constr(247):  x_8 - z_8_2 >= -0
constr(248):  x_2 - z_8_2 >= -0
constr(249):  x_3 + x_8 - z_8_3 <= 1
constr(250):  x_8 - z_8_3 >= -0
constr(251):  x_3 - z_8_3 >= -0
constr(252):  x_4 + x_8 - z_8_4 <= 1
constr(253):  x_8 - z_8_4 >= -0
constr(254):  x_4 - z_8_4 >= -0
constr(255):  x_5 + x_8 - z_8_5 <= 1
constr(256):  x_8 - z_8_5 >= -0
constr(257):  x_5 - z_8_5 >= -0
constr(258):  x_6 + x_8 - z_8_6 <= 1
constr(259):  x_8 - z_8_6 >= -0
constr(260):  x_6 - z_8_6 >= -0
constr(261):  x_7 + x_8 - z_8_7 <= 1
constr(262):  x_8 - z_8_7 >= -0
constr(263):  x_7 - z_8_7 >= -0
constr(264):  x_8 - z_8_8 <= 1
constr(265):  x_8 - z_8_8 >= -0
constr(266):  x_8 - z_8_8 >= -0
constr(267):  x_8 + x_9 - z_8_9 <= 1
constr(268):  x_8 - z_8_9 >= -0
constr(269):  x_9 - z_8_9 >= -0
constr(270):  x_0 + x_9 - z_9_0 <= 1
constr(271):  x_9 - z_9_0 >= -0
constr(272):  x_0 - z_9_0 >= -0
constr(273):  x_1 + x_9 - z_9_1 <= 1
constr(274):  x_9 - z_9_1 >= -0
constr(275):  x_1 - z_9_1 >= -0
constr(276):  x_2 + x_9 - z_9_2 <= 1
constr(277):  x_9 - z_9_2 >= -0
constr(278):  x_2 - z_9_2 >= -0
constr(279):  x_3 + x_9 - z_9_3 <= 1
constr(280):  x_9 - z_9_3 >= -0
constr(281):  x_3 - z_9_3 >= -0
constr(282):  x_4 + x_9 - z_9_4 <= 1
constr(283):  x_9 - z_9_4 >= -0
constr(284):  x_4 - z_9_4 >= -0
constr(285):  x_5 + x_9 - z_9_5 <= 1
constr(286):  x_9 - z_9_5 >= -0
constr(287):  x_5 - z_9_5 >= -0
constr(288):  x_6 + x_9 - z_9_6 <= 1
constr(289):  x_9 - z_9_6 >= -0
constr(290):  x_6 - z_9_6 >= -0
constr(291):  x_7 + x_9 - z_9_7 <= 1
constr(292):  x_9 - z_9_7 >= -0
constr(293):  x_7 - z_9_7 >= -0
constr(294):  x_8 + x_9 - z_9_8 <= 1
constr(295):  x_9 - z_9_8 >= -0
constr(296):  x_8 - z_9_8 >= -0
constr(297):  x_9 - z_9_9 <= 1
constr(298):  x_9 - z_9_9 >= -0
constr(299):  x_9 - z_9_9 >= -0
partition_constr:  x_0 + x_1 + x_2 + x_3 + x_4 + x_5 + x_6 + x_7 + x_8 + x_9
 = 10
Bounds
 0 <= x_0 <= 1
 0 <= x_1 <= 1
 0 <= x_2 <= 1
 0 <= x_3 <= 1
 0 <= x_4 <= 1
 0 <= x_5 <= 1
 0 <= x_6 <= 1
 0 <= x_7 <= 1
 0 <= x_8 <= 1
 0 <= x_9 <= 1
 0 <= z_0_0 <= 1
 0 <= z_0_1 <= 1
 0 <= z_0_2 <= 1
 0 <= z_0_3 <= 1
 0 <= z_0_4 <= 1
 0 <= z_0_5 <= 1
 0 <= z_0_6 <= 1
 0 <= z_0_7 <= 1
 0 <= z_0_8 <= 1
 0 <= z_0_9 <= 1
 0 <= z_1_0 <= 1
 0 <= z_1_1 <= 1
 0 <= z_1_2 <= 1
 0 <= z_1_3 <= 1
 0 <= z_1_4 <= 1
 0 <= z_1_5 <= 1
 0 <= z_1_6 <= 1
 0 <= z_1_7 <= 1
 0 <= z_1_8 <= 1
 0 <= z_1_9 <= 1
 0 <= z_2_0 <= 1
 0 <= z_2_1 <= 1
 0 <= z_2_2 <= 1
 0 <= z_2_3 <= 1
 0 <= z_2_4 <= 1
 0 <= z_2_5 <= 1
 0 <= z_2_6 <= 1
 0 <= z_2_7 <= 1
 0 <= z_2_8 <= 1
 0 <= z_2_9 <= 1
 0 <= z_3_0 <= 1
 0 <= z_3_1 <= 1
 0 <= z_3_2 <= 1
 0 <= z_3_3 <= 1
 0 <= z_3_4 <= 1
 0 <= z_3_5 <= 1
 0 <= z_3_6 <= 1
 0 <= z_3_7 <= 1
 0 <= z_3_8 <= 1
 0 <= z_3_9 <= 1
 0 <= z_4_0 <= 1
 0 <= z_4_1 <= 1
 0 <= z_4_2 <= 1
 0 <= z_4_3 <= 1
 0 <= z_4_4 <= 1
 0 <= z_4_5 <= 1
 0 <= z_4_6 <= 1
 0 <= z_4_7 <= 1
 0 <= z_4_8 <= 1
 0 <= z_4_9 <= 1
 0 <= z_5_0 <= 1
 0 <= z_5_1 <= 1
 0 <= z_5_2 <= 1
 0 <= z_5_3 <= 1
 0 <= z_5_4 <= 1
 0 <= z_5_5 <= 1
 0 <= z_5_6 <= 1
 0 <= z_5_7 <= 1
 0 <= z_5_8 <= 1
 0 <= z_5_9 <= 1
 0 <= z_6_0 <= 1
 0 <= z_6_1 <= 1
 0 <= z_6_2 <= 1
 0 <= z_6_3 <= 1
 0 <= z_6_4 <= 1
 0 <= z_6_5 <= 1
 0 <= z_6_6 <= 1
 0 <= z_6_7 <= 1
 0 <= z_6_8 <= 1
 0 <= z_6_9 <= 1
 0 <= z_7_0 <= 1
 0 <= z_7_1 <= 1
 0 <= z_7_2 <= 1
 0 <= z_7_3 <= 1
 0 <= z_7_4 <= 1
 0 <= z_7_5 <= 1
 0 <= z_7_6 <= 1
 0 <= z_7_7 <= 1
 0 <= z_7_8 <= 1
 0 <= z_7_9 <= 1
 0 <= z_8_0 <= 1
 0 <= z_8_1 <= 1
 0 <= z_8_2 <= 1
 0 <= z_8_3 <= 1
 0 <= z_8_4 <= 1
 0 <= z_8_5 <= 1
 0 <= z_8_6 <= 1
 0 <= z_8_7 <= 1
 0 <= z_8_8 <= 1
 0 <= z_8_9 <= 1
 0 <= z_9_0 <= 1
 0 <= z_9_1 <= 1
 0 <= z_9_2 <= 1
 0 <= z_9_3 <= 1
 0 <= z_9_4 <= 1
 0 <= z_9_5 <= 1
 0 <= z_9_6 <= 1
 0 <= z_9_7 <= 1
 0 <= z_9_8 <= 1
 0 <= z_9_9 <= 1
Integers
x_0 x_1 x_2 x_3 x_4 x_5 x_6 x_7 x_8 x_9 
z_0_0 z_0_1 z_0_2 z_0_3 z_0_4 z_0_5 z_0_6 z_0_7 z_0_8 z_0_9 
z_1_0 z_1_1 z_1_2 z_1_3 z_1_4 z_1_5 z_1_6 z_1_7 z_1_8 z_1_9 
z_2_0 z_2_1 z_2_2 z_2_3 z_2_4 z_2_5 z_2_6 z_2_7 z_2_8 z_2_9 
z_3_0 z_3_1 z_3_2 z_3_3 z_3_4 z_3_5 z_3_6 z_3_7 z_3_8 z_3_9 
z_4_0 z_4_1 z_4_2 z_4_3 z_4_4 z_4_5 z_4_6 z_4_7 z_4_8 z_4_9 
z_5_0 z_5_1 z_5_2 z_5_3 z_5_4 z_5_5 z_5_6 z_5_7 z_5_8 z_5_9 
z_6_0 z_6_1 z_6_2 z_6_3 z_6_4 z_6_5 z_6_6 z_6_7 z_6_8 z_6_9 
z_7_0 z_7_1 z_7_2 z_7_3 z_7_4 z_7_5 z_7_6 z_7_7 z_7_8 z_7_9 
z_8_0 z_8_1 z_8_2 z_8_3 z_8_4 z_8_5 z_8_6 z_8_7 z_8_8 z_8_9 
z_9_0 z_9_1 z_9_2 z_9_3 z_9_4 z_9_5 z_9_6 z_9_7 z_9_8 z_9_9 
End
